NAME : n20w200.004.326.tour
COMMENT : Length = 326
COMMENT : Found by LKH [Keld Helsgaun] Tue May  2 05:47:16 2017
TYPE : TOUR
DIMENSION : 21
TOUR_SECTION
1
14
7
18
15
11
3
12
13
2
20
16
9
19
4
6
5
17
8
10
21
-1
EOF
